NAME /Users/henri/Research/solvers/instances/idol-instances/robust/collection/cbp_Subramanyam_et_al_2020/CapBud_N5_2/models/uncertain_technology_matrix/
ROWS
 N  OBJ
 L  capacity
 L  c_55
 L  c_56
 L  c_57
 L  c_58
 L  c_59
COLUMNS
    MARKER    'MARKER'                 'INTORG'
    x_0        OBJ        0.093567
    x_0        c_55       1
    x_0        capacity   0.0187134
    x_1        OBJ        8.42342
    x_1        c_56       1
    x_1        capacity   1.68468
    x_2        OBJ        6.47174
    x_2        c_57       1
    x_2        capacity   1.29435
    x_3        OBJ        8.41386
    x_3        c_58       1
    x_3        capacity   1.68277
    x_4        OBJ        2.6473
    x_4        c_59       1
    x_4        capacity   0.52946
    y_0        OBJ        0.0748536
    y_0        c_55       1
    y_0        capacity   0.0187134
    y_1        OBJ        6.73874
    y_1        c_56       1
    y_1        capacity   1.68468
    y_2        OBJ        5.17739
    y_2        c_57       1
    y_2        capacity   1.29435
    y_3        OBJ        6.73109
    y_3        c_58       1
    y_3        capacity   1.68277
    y_4        OBJ        2.11784
    y_4        c_59       1
    y_4        capacity   0.52946
    MARKER    'MARKER'                 'INTEND'
RHS
    RHS       capacity   13.0249
    RHS       c_55       1
    RHS       c_56       1
    RHS       c_57       1
    RHS       c_58       1
    RHS       c_59       1
BOUNDS
 LI BND       x_0        0
 UI BND       x_0        1
 LI BND       x_1        0
 UI BND       x_1        1
 LI BND       x_2        0
 UI BND       x_2        1
 LI BND       x_3        0
 UI BND       x_3        1
 LI BND       x_4        0
 UI BND       x_4        1
 LI BND       y_0        0
 UI BND       y_0        1
 LI BND       y_1        0
 UI BND       y_1        1
 LI BND       y_2        0
 UI BND       y_2        1
 LI BND       y_3        0
 UI BND       y_3        1
 LI BND       y_4        0
 UI BND       y_4        1
ENDATA
